cliques=[{99,89,124,67,91,78,61,113,72,79,27,101,116,109,38,96,108,127,7,107,26,87,90,73,42,18,0,77,75,104},{117,106,85,67,91,82,61,122,98,81,27,93,6,9,92,13,7,74,57,24,114,37,87,90,68,126,23,52,45,112,42,44,19,51,65,125,29,1,115,75},{8,20,86,80,41,25,3,123,62,2,4,103,47,17},{49,8,20,84,80,41,25,3,123,62,48,2,58,10,4,103,17},{8,20,86,80,41,25,3,123,62,2,4,103,47,17},{5,106,67,91,95,61,122,27,63,9,92,127,7,74,26,12,114,121,88,87,90,126,23,112,69,44,51,65,125,70,29,1,110,75,83},{117,106,85,67,91,82,61,122,98,81,27,93,6,9,92,13,7,74,57,24,114,37,87,90,68,126,23,52,45,112,42,44,19,51,65,125,29,1,115,75},{117,106,85,67,91,82,61,122,98,81,27,93,6,9,92,13,7,74,57,24,114,37,87,90,68,126,23,52,45,112,42,44,19,51,65,125,29,1,115,75},{49,8,20,84,80,41,25,3,123,62,48,2,58,10,4,103,17},{117,106,85,67,91,82,61,122,98,81,27,93,6,9,92,13,7,74,57,24,114,37,87,90,68,126,23,52,45,112,42,44,19,51,65,125,29,1,115,75},{49,8,20,84,80,41,25,3,123,62,48,2,58,10,4,103,17},{89,78,113,79,101,116,109,38,96,108,127,15,30,31,107,26,73,32,0,97,11,104},{106,85,67,91,95,40,61,122,81,27,93,9,92,60,7,74,57,12,24,114,37,87,90,68,126,23,52,112,44,19,51,65,125,29,1,110,115,75,83},{117,106,85,67,91,82,61,122,98,81,27,93,6,9,92,13,7,74,57,24,114,37,87,90,68,126,23,52,45,112,42,44,19,51,65,125,29,1,115,75},{8,20,25,76,28,3,123,48,39,2,53,14,4,103,47,17},{99,89,124,78,113,72,79,101,116,109,38,96,108,127,7,15,107,26,64,73,42,18,32,0,77,104},{49,16,8,20,84,80,41,3,62,48,2,58,10,103},{49,8,20,84,80,41,25,3,123,62,48,2,58,10,4,103,17},{99,89,124,67,91,78,61,122,113,72,98,27,116,109,6,38,13,127,7,107,26,114,87,90,73,100,42,18,51,65,125,77,75,104},{117,106,85,67,91,82,61,122,98,81,27,93,6,9,92,13,7,74,57,24,114,37,87,90,68,126,23,52,45,112,42,44,19,51,65,125,29,1,115,75},{49,20,8,84,80,41,25,3,123,62,48,2,58,10,4,103,17},{117,106,85,67,91,82,40,61,122,98,81,27,93,6,9,92,60,74,21,57,24,114,37,90,68,126,23,52,45,112,44,19,51,65,125,29,35,1,110,115},{5,106,67,91,95,61,122,27,63,9,92,127,74,26,12,121,88,87,90,126,23,112,69,44,22,51,65,125,70,1,110,75,83},{117,106,85,67,91,82,61,122,98,81,27,93,6,9,92,13,7,74,57,24,114,37,87,90,68,126,23,52,45,112,42,44,19,51,65,125,29,1,115,75},{117,106,85,67,91,82,61,122,98,81,27,93,6,9,92,13,7,74,57,24,114,37,87,90,68,126,23,52,45,112,42,44,19,51,65,125,29,1,115,75},{49,8,20,84,80,41,25,3,123,62,48,2,58,10,4,103,17},{99,89,124,67,91,78,61,122,113,72,98,27,116,109,6,38,13,127,7,107,26,114,87,90,73,100,42,18,51,65,125,77,75,104},{117,106,85,67,91,82,61,122,98,81,27,93,6,9,92,13,7,74,57,24,114,37,87,90,68,126,23,52,45,112,42,44,19,51,65,125,29,1,115,75},{8,20,86,25,76,28,3,111,123,53,4,47,17},{117,106,85,67,91,82,61,122,98,81,27,93,6,9,92,13,7,74,57,24,114,37,87,90,68,126,23,52,45,112,42,44,19,51,65,125,29,1,115,75},{89,124,78,113,79,101,116,109,38,96,108,127,15,30,107,26,73,42,32,0,77,97,104},{89,78,113,79,101,116,109,38,96,108,127,15,30,31,107,26,73,32,0,97,11,104},{99,89,124,78,61,113,72,79,101,116,109,38,96,108,127,7,107,26,64,87,90,73,42,18,32,0,77,75,104},{124,113,120,34,116,38,96,33,15,64,73,32,77,50,104},{89,78,79,86,34,101,116,46,36,15,31,73,32,11},{117,106,85,67,91,95,82,40,61,122,98,81,27,93,9,92,60,7,74,57,24,114,37,87,90,68,126,23,52,45,112,44,19,51,65,125,29,35,1,110,115,83},{89,119,78,79,101,116,46,109,108,36,15,30,31,107,73,43,32,0,97,11},{117,106,85,67,91,82,61,122,98,81,27,93,6,9,92,13,7,74,57,24,114,37,87,90,68,126,23,52,45,112,42,44,19,51,65,125,29,1,115,75},{99,89,124,67,91,78,61,122,113,72,98,27,101,116,109,63,6,38,127,7,107,26,87,90,73,100,42,18,51,65,125,77,75,104},{8,20,84,80,41,25,3,123,48,39,2,58,10,4,103,17},{117,106,85,67,91,95,82,40,61,122,98,81,27,93,9,92,60,7,74,57,24,114,37,87,90,68,126,23,52,45,112,44,19,51,65,125,29,1,110,115,75,83},{49,8,20,84,80,41,25,3,123,62,48,2,58,10,4,103,17},{117,106,85,67,91,82,61,122,98,81,27,93,6,9,92,13,7,74,57,24,114,37,87,90,68,126,23,52,45,112,42,44,19,51,65,125,29,1,115,75},{89,78,113,66,79,101,116,109,63,56,108,127,30,107,26,87,73,43,54,0,102,97,75},{117,106,85,67,91,82,61,122,98,81,27,93,6,9,92,13,7,74,57,24,114,37,87,90,68,126,23,52,45,112,42,44,19,51,65,125,29,1,115,75},{117,106,85,67,91,82,61,122,98,81,27,93,6,9,92,13,7,74,57,24,114,37,87,90,68,126,23,52,45,112,42,44,19,51,65,125,29,1,115,75},{89,119,78,79,101,116,46,109,108,36,15,30,31,107,73,43,32,0,97,11},{8,20,86,80,41,25,3,123,62,2,4,103,47,17},{49,8,20,84,80,41,25,3,123,62,48,2,58,10,4,103,17},{49,8,20,84,80,41,25,3,123,62,48,2,58,10,4,103,17},{99,89,124,78,61,113,72,79,101,116,109,38,96,127,7,64,90,73,100,42,18,32,77,50,104},{117,106,85,67,91,82,61,122,98,81,27,93,6,9,92,13,7,74,57,24,114,37,87,90,68,126,23,52,45,112,42,44,19,51,65,125,29,1,115,75},{117,106,85,67,91,82,61,122,98,81,27,93,6,9,92,13,7,74,57,24,114,37,87,90,68,126,23,52,45,112,42,44,19,51,65,125,29,1,115,75},{8,20,86,25,76,28,3,111,123,53,4,47,17},{99,89,106,67,91,78,61,113,66,101,109,63,56,108,127,7,107,26,121,87,90,69,54,42,75},{5,106,95,55,63,9,92,74,12,121,88,126,112,69,22,70,1,110,75,83,59},{99,89,106,67,91,78,61,113,66,101,109,63,56,108,127,7,107,26,121,87,90,69,54,42,75},{117,106,85,67,91,82,61,122,98,81,27,93,6,9,92,13,7,74,57,24,114,37,87,90,68,126,23,52,45,112,42,44,19,51,65,125,29,1,115,75},{49,8,20,84,80,41,25,3,123,62,48,2,58,10,4,103,17},{5,106,67,91,95,122,63,9,92,127,74,26,12,121,88,87,126,23,112,69,44,22,125,70,1,110,75,83,59},{117,106,85,67,91,95,82,40,61,122,98,81,27,93,9,92,60,7,74,57,24,114,37,87,90,68,126,23,52,45,112,44,19,51,65,125,29,35,1,110,115,83},{117,106,85,67,91,82,61,122,98,81,27,93,6,9,92,13,7,74,57,24,114,37,87,90,68,126,23,52,45,112,42,44,19,51,65,125,29,1,115,75},{49,8,20,84,80,41,25,3,123,62,48,2,58,10,4,103,17},{99,89,124,67,91,78,61,122,113,72,98,27,116,109,63,6,38,127,7,107,26,114,87,90,73,100,42,18,51,65,125,77,75,104},{99,89,124,67,78,61,113,72,98,79,27,101,116,109,38,96,108,127,7,107,26,64,87,90,73,100,42,18,77,75,104},{117,106,85,67,91,82,61,122,98,81,27,93,6,9,92,13,7,74,57,24,114,37,87,90,68,126,23,52,45,112,42,44,19,51,65,125,29,1,115,75},{99,89,106,67,91,78,61,122,113,98,66,27,101,109,63,108,127,7,107,26,121,87,90,69,42,51,65,125,75},{117,106,85,67,91,82,61,122,98,81,27,93,6,9,92,13,7,74,57,24,114,37,87,90,68,126,23,52,45,112,42,44,19,51,65,125,29,1,115,75},{117,106,85,67,91,82,61,122,98,81,27,93,6,9,92,13,7,74,57,24,114,37,87,90,68,126,23,52,45,112,42,44,19,51,65,125,29,1,115,75},{5,106,67,91,95,61,122,27,63,9,92,127,7,74,26,12,114,121,87,90,68,126,23,112,69,44,51,65,125,29,70,1,110,75,83},{106,85,67,91,95,40,61,122,98,27,93,9,92,60,7,74,57,24,114,37,87,90,68,126,23,52,112,44,19,51,65,125,70,29,1,110,115,75,83},{89,119,78,66,79,101,109,63,56,108,30,107,26,121,43,69,54,71,118,0,102,97},{99,89,124,67,91,78,61,122,113,72,98,27,116,109,6,38,13,127,7,107,26,114,87,90,73,100,42,18,51,65,125,77,75,104},{99,89,124,67,91,78,61,113,72,98,79,27,101,116,109,38,96,108,127,7,107,26,87,90,73,100,42,18,51,77,75,104},{117,106,85,67,91,82,61,122,98,81,27,93,6,9,92,13,7,74,57,24,114,37,87,90,68,126,23,52,45,112,42,44,19,51,65,125,29,1,115,75},{117,106,85,67,91,82,61,122,98,81,27,93,6,9,92,13,7,74,57,24,114,37,87,90,68,126,23,52,45,112,42,44,19,51,65,125,29,1,115,75},{8,20,86,25,76,28,3,111,123,53,4,47,17},{99,89,124,67,91,78,61,122,113,72,98,27,101,116,109,63,6,38,127,7,107,26,87,90,73,100,42,18,51,65,125,77,75,104},{99,89,124,67,91,78,61,113,72,98,79,27,101,116,109,38,96,108,127,7,107,26,87,90,73,100,42,18,51,77,75,104},{99,89,124,67,91,78,61,113,72,98,79,27,101,116,109,38,96,108,127,7,107,26,87,90,73,100,42,18,51,77,75,104},{49,8,20,84,80,41,25,3,123,62,48,2,58,10,4,103,17},{117,106,85,67,91,95,82,40,61,122,98,81,27,93,9,92,60,7,74,57,24,114,37,87,90,68,126,23,52,45,112,44,19,51,65,125,29,35,1,110,115,83},{117,106,85,67,91,82,61,122,98,81,27,93,6,9,92,13,7,74,57,24,114,37,87,90,68,126,23,52,45,112,42,44,19,51,65,125,29,1,115,75},{117,106,85,67,91,95,82,40,61,122,98,81,27,93,9,92,60,7,74,57,24,114,37,87,90,68,126,23,52,45,112,44,19,51,65,125,29,1,110,115,75,83},{49,8,20,84,80,41,25,3,123,62,48,2,58,10,4,103,17},{117,106,85,67,91,95,82,40,61,122,98,81,27,93,9,92,60,7,74,57,24,114,37,87,90,68,126,23,52,45,112,44,19,51,65,125,29,35,1,110,115,83},{8,20,86,80,41,25,3,123,62,2,4,103,47,17},{117,106,85,67,91,82,61,122,98,81,27,93,6,9,92,13,7,74,57,24,114,37,87,90,68,126,23,52,45,112,42,44,19,51,65,125,29,1,115,75},{5,106,67,91,95,61,122,27,63,9,92,127,7,74,26,12,114,121,88,87,90,126,23,112,69,44,51,65,125,70,29,1,110,75,83},{99,89,124,67,91,78,61,113,72,98,79,27,101,116,109,38,96,108,127,7,107,26,87,90,73,100,42,18,51,77,75,104},{117,106,85,67,91,82,61,122,98,81,27,93,6,9,92,13,7,74,57,24,114,37,87,90,68,126,23,52,45,112,42,44,19,51,65,125,29,1,115,75},{117,106,85,67,91,82,61,122,98,81,27,93,6,9,92,13,7,74,57,24,114,37,87,90,68,126,23,52,45,112,42,44,19,51,65,125,29,1,115,75},{117,106,85,67,91,82,61,122,98,81,27,93,6,9,92,13,7,74,57,24,114,37,87,90,68,126,23,52,45,112,42,44,19,51,65,125,29,1,115,75},{117,106,85,67,91,82,61,122,98,81,27,93,6,9,92,13,7,74,57,24,114,37,87,90,68,126,23,52,45,112,42,44,19,51,65,125,29,1,115,75},{5,106,95,66,55,63,74,105,94,12,121,88,126,69,22,70,1,110,83,59},{117,106,85,67,91,95,82,40,61,122,98,81,27,93,9,92,60,7,74,57,24,114,37,87,90,68,126,23,52,45,112,44,19,51,65,125,29,1,110,115,75,83},{99,89,124,67,91,78,61,113,72,98,79,27,101,116,109,38,96,108,127,7,107,26,87,90,73,100,42,18,51,77,75,104},{99,89,124,67,91,78,61,113,79,101,116,109,38,96,108,127,7,107,26,87,90,73,42,0,77,97,75,104},{117,106,85,67,91,82,61,122,98,81,27,93,6,9,92,13,7,74,57,24,114,37,87,90,68,126,23,52,45,112,42,44,19,51,65,125,29,1,115,75},{99,89,124,67,91,78,61,122,113,72,98,27,116,109,6,38,13,127,7,107,26,114,87,90,73,100,42,18,51,65,125,77,75,104},{99,89,124,67,91,78,61,122,113,72,98,27,101,116,109,63,6,38,127,7,107,26,87,90,73,100,42,18,51,65,125,77,75,104},{99,89,124,67,91,78,61,113,72,98,79,27,101,116,109,38,96,108,127,7,107,26,87,90,73,100,42,18,51,77,75,104},{89,67,78,61,113,66,79,101,116,109,63,56,108,127,7,107,26,87,73,54,42,0,102,97,75},{49,8,20,84,80,41,25,3,123,62,48,2,58,10,4,103,17},{99,89,124,67,91,78,61,122,113,72,98,27,101,116,109,63,6,38,127,7,107,26,87,90,73,100,42,18,51,65,125,77,75,104},{5,106,95,66,55,63,74,105,94,12,121,88,126,69,22,70,1,110,83,59},{117,106,85,67,91,82,61,122,98,81,27,93,6,9,92,13,7,74,57,24,114,37,87,90,68,126,23,52,45,112,42,44,19,51,65,125,29,1,115,75},{99,89,124,67,91,78,61,122,113,72,98,27,101,116,109,63,6,38,127,7,107,26,87,90,73,100,42,18,51,65,125,77,75,104},{99,89,124,67,91,78,61,122,113,72,98,27,101,116,109,63,38,108,127,7,107,26,87,90,73,100,42,18,51,65,125,77,75,104},{99,89,124,67,91,78,61,122,113,72,98,27,116,109,6,38,13,127,7,107,26,114,87,90,73,100,42,18,51,65,125,77,75,104},{117,106,85,67,91,95,82,40,61,122,98,81,27,93,9,92,60,7,74,57,24,114,37,87,90,68,126,23,52,45,112,44,19,51,65,125,29,1,110,115,75,83},{8,20,86,25,76,28,3,111,123,53,4,47,17},{117,106,85,67,91,82,61,122,98,81,27,93,6,9,92,13,7,74,57,24,114,37,87,90,68,126,23,52,45,112,42,44,19,51,65,125,29,1,115,75},{99,89,124,67,91,78,61,122,113,72,98,27,116,109,6,38,13,127,7,107,26,114,87,90,73,100,42,18,51,65,125,77,75,104},{117,106,85,67,91,82,61,122,98,81,27,93,6,9,92,13,7,74,57,24,114,37,87,90,68,126,23,52,45,112,42,44,19,51,65,125,29,1,115,75},{117,106,85,67,91,82,61,122,98,81,27,93,6,9,92,13,7,74,57,24,114,37,87,90,68,126,23,52,45,112,42,44,19,51,65,125,29,1,115,75},{99,89,124,67,91,78,61,113,72,98,79,27,101,116,109,38,96,108,127,7,107,26,87,90,73,100,42,18,51,77,75,104},{117,106,85,67,91,95,82,40,61,122,98,81,27,93,9,92,60,7,74,57,24,114,37,87,90,68,126,23,52,45,112,44,19,51,65,125,29,35,1,110,115,83},{89,119,78,66,79,101,109,63,56,108,30,107,26,121,43,69,54,71,118,0,102,97},{89,119,78,79,101,116,46,109,56,108,36,30,31,107,73,43,54,32,0,102,97,11},{99,89,124,78,113,72,120,101,116,38,96,15,64,73,100,18,32,77,50,104},{99,106,67,91,61,122,98,27,63,6,9,92,127,7,74,26,114,121,87,90,68,126,23,112,42,44,19,51,65,125,29,1,75},{117,106,85,67,91,82,61,122,98,81,27,93,6,9,92,13,7,74,57,24,114,37,87,90,68,126,23,52,45,112,42,44,19,51,65,125,29,1,115,75},{49,8,20,84,80,41,25,3,123,62,48,2,58,10,4,103,17},{99,89,124,67,91,78,61,122,113,72,98,27,101,116,109,63,6,38,127,7,107,26,87,90,73,100,42,18,51,65,125,77,75,104},{117,106,85,67,91,82,61,122,98,81,27,93,6,9,92,13,7,74,57,24,114,37,87,90,68,126,23,52,45,112,42,44,19,51,125,65,29,1,115,75},{117,106,85,67,91,82,61,122,98,81,27,93,6,9,92,13,7,74,57,24,114,37,87,90,68,126,23,52,45,112,42,44,19,51,65,125,29,1,115,75},{99,89,124,67,91,78,61,122,113,72,98,27,116,109,6,38,13,127,7,107,26,114,87,90,73,100,42,18,51,65,125,77,75,104}];
nr_cliques=128;
